FourierSAT_Github_AIJ/benchmarks/MAXSAT_benchmarks/crafted/3/bipartite/maxcut-140-630-0.8/maxcut-140-630-0.8-14.cnf
c strEdges: 125  randomEdges: 504 
c degrees:  1  2 
c girth: Inf max: -43.604516  
c Hgirth mixed MAXCUT instance
c generated from an undirected graph
c to solve unweighted MaxCut
p cnf 140 1258
31 93 0
-31 -93 0
31 96 0
-31 -96 0
127 7 0
-127 -7 0
127 12 0
-127 -12 0
86 36 0
-86 -36 0
86 126 0
-86 -126 0
101 84 0
-101 -84 0
101 65 0
-101 -65 0
85 8 0
-85 -8 0
85 26 0
-85 -26 0
102 28 0
-102 -28 0
102 24 0
-102 -24 0
139 50 0
-139 -50 0
139 118 0
-139 -118 0
14 56 0
-14 -56 0
14 93 0
-14 -93 0
80 26 0
-80 -26 0
52 97 0
-52 -97 0
52 22 0
-52 -22 0
62 76 0
-62 -76 0
62 51 0
-62 -51 0
133 22 0
-133 -22 0
133 78 0
-133 -78 0
42 40 0
-42 -40 0
42 82 0
-42 -82 0
120 126 0
-120 -126 0
120 45 0
-120 -45 0
114 11 0
-114 -11 0
73 119 0
-73 -119 0
73 59 0
-73 -59 0
49 107 0
-49 -107 0
49 64 0
-49 -64 0
34 124 0
-34 -124 0
34 84 0
-34 -84 0
38 121 0
-38 -121 0
77 67 0
-77 -67 0
77 71 0
-77 -71 0
128 116 0
-128 -116 0
128 7 0
-128 -7 0
79 2 0
-79 -2 0
79 137 0
-79 -137 0
13 39 0
-13 -39 0
13 89 0
-13 -89 0
57 54 0
-57 -54 0
57 107 0
-57 -107 0
117 43 0
-117 -43 0
117 131 0
-117 -131 0
16 113 0
-16 -113 0
16 90 0
-16 -90 0
83 99 0
-83 -99 0
104 47 0
-104 -47 0
41 131 0
-41 -131 0
41 70 0
-41 -70 0
74 23 0
-74 -23 0
132 44 0
-132 -44 0
132 113 0
-132 -113 0
55 91 0
-55 -91 0
55 10 0
-55 -10 0
140 66 0
-140 -66 0
4 130 0
-4 -130 0
4 6 0
-4 -6 0
111 6 0
-111 -6 0
111 68 0
-111 -68 0
5 12 0
-5 -12 0
5 123 0
-5 -123 0
37 82 0
-37 -82 0
75 103 0
-75 -103 0
75 91 0
-75 -91 0
3 90 0
-3 -90 0
3 56 0
-3 -56 0
21 123 0
-21 -123 0
21 119 0
-21 -119 0
105 51 0
-105 -51 0
105 44 0
-105 -44 0
72 45 0
-72 -45 0
72 124 0
-72 -124 0
1 10 0
-1 -10 0
1 130 0
-1 -130 0
122 64 0
-122 -64 0
122 99 0
-122 -99 0
136 61 0
-136 -61 0
136 98 0
-136 -98 0
138 78 0
-138 -78 0
138 8 0
-138 -8 0
100 137 0
-100 -137 0
100 60 0
-100 -60 0
109 70 0
-109 -70 0
109 19 0
-109 -19 0
94 98 0
-94 -98 0
94 92 0
-94 -92 0
63 96 0
-63 -96 0
63 50 0
-63 -50 0
48 92 0
-48 -92 0
48 66 0
-48 -66 0
27 59 0
-27 -59 0
81 69 0
-81 -69 0
81 112 0
-81 -112 0
53 115 0
-53 -115 0
53 43 0
-53 -43 0
46 89 0
-46 -89 0
46 54 0
-46 -54 0
32 134 0
-32 -134 0
15 71 0
-15 -71 0
15 97 0
-15 -97 0
25 24 0
-25 -24 0
25 95 0
-25 -95 0
35 68 0
-35 -68 0
106 112 0
-106 -112 0
106 36 0
-106 -36 0
18 118 0
-18 -118 0
18 61 0
-18 -61 0
125 129 0
-125 -129 0
125 121 0
-125 -121 0
33 19 0
-33 -19 0
33 2 0
-33 -2 0
29 60 0
-29 -60 0
29 47 0
-29 -47 0
17 95 0
-17 -95 0
17 39 0
-17 -39 0
20 135 0
-20 -135 0
20 134 0
-20 -134 0
87 30 0
-87 -30 0
9 110 0
-9 -110 0
108 65 0
-108 -65 0
58 88 0
-58 -88 0
104 29 0
-104 -29 0
114 130 0
-114 -130 0
73 137 0
-73 -137 0
58 121 0
-58 -121 0
9 44 0
-9 -44 0
22 137 0
-22 -137 0
17 69 0
-17 -69 0
140 92 0
-140 -92 0
17 90 0
-17 -90 0
90 71 0
-90 -71 0
105 35 0
-105 -35 0
55 72 0
-55 -72 0
139 76 0
-139 -76 0
74 4 0
-74 -4 0
3 10 0
-3 -10 0
18 107 0
-18 -107 0
32 87 0
-32 -87 0
106 47 0
-106 -47 0
79 19 0
-79 -19 0
140 124 0
-140 -124 0
103 123 0
-103 -123 0
125 113 0
-125 -113 0
91 64 0
-91 -64 0
85 122 0
-85 -122 0
105 66 0
-105 -66 0
113 118 0
-113 -118 0
133 92 0
-133 -92 0
115 71 0
-115 -71 0
139 68 0
-139 -68 0
63 47 0
-63 -47 0
11 88 0
-11 -88 0
84 47 0
-84 -47 0
22 54 0
-22 -54 0
117 125 0
-117 -125 0
138 22 0
-138 -22 0
58 112 0
-58 -112 0
17 47 0
-17 -47 0
1 131 0
-1 -131 0
18 95 0
-18 -95 0
101 73 0
-101 -73 0
42 110 0
-42 -110 0
107 135 0
-107 -135 0
46 26 0
-46 -26 0
139 35 0
-139 -35 0
95 135 0
-95 -135 0
132 129 0
-132 -129 0
39 103 0
-39 -103 0
31 46 0
-31 -46 0
127 18 0
-127 -18 0
99 112 0
-99 -112 0
139 137 0
-139 -137 0
34 104 0
-34 -104 0
82 68 0
-82 -68 0
53 6 0
-53 -6 0
52 108 0
-52 -108 0
107 88 0
-107 -88 0
32 90 0
-32 -90 0
42 124 0
-42 -124 0
18 110 0
-18 -110 0
73 132 0
-73 -132 0
139 96 0
-139 -96 0
5 66 0
-5 -66 0
94 108 0
-94 -108 0
85 3 0
-85 -3 0
36 113 0
-36 -113 0
25 125 0
-25 -125 0
98 24 0
-98 -24 0
55 96 0
-55 -96 0
122 115 0
-122 -115 0
34 115 0
-34 -115 0
38 112 0
-38 -112 0
132 110 0
-132 -110 0
74 51 0
-74 -51 0
42 22 0
-42 -22 0
69 19 0
-69 -19 0
111 96 0
-111 -96 0
20 95 0
-20 -95 0
36 82 0
-36 -82 0
108 50 0
-108 -50 0
5 129 0
-5 -129 0
133 83 0
-133 -83 0
48 98 0
-48 -98 0
127 54 0
-127 -54 0
58 115 0
-58 -115 0
72 56 0
-72 -56 0
31 69 0
-31 -69 0
74 115 0
-74 -115 0
123 112 0
-123 -112 0
33 29 0
-33 -29 0
120 63 0
-120 -63 0
87 113 0
-87 -113 0
5 113 0
-5 -113 0
106 50 0
-106 -50 0
35 26 0
-35 -26 0
132 138 0
-132 -138 0
41 96 0
-41 -96 0
49 81 0
-49 -81 0
39 92 0
-39 -92 0
124 112 0
-124 -112 0
106 76 0
-106 -76 0
21 12 0
-21 -12 0
76 131 0
-76 -131 0
85 104 0
-85 -104 0
10 64 0
-10 -64 0
58 47 0
-58 -47 0
136 93 0
-136 -93 0
74 72 0
-74 -72 0
37 68 0
-37 -68 0
16 76 0
-16 -76 0
80 23 0
-80 -23 0
114 33 0
-114 -33 0
86 43 0
-86 -43 0
49 22 0
-49 -22 0
62 115 0
-62 -115 0
58 131 0
-58 -131 0
34 56 0
-34 -56 0
122 138 0
-122 -138 0
56 103 0
-56 -103 0
16 124 0
-16 -124 0
35 118 0
-35 -118 0
16 119 0
-16 -119 0
87 92 0
-87 -92 0
9 76 0
-9 -76 0
109 67 0
-109 -67 0
9 19 0
-9 -19 0
46 45 0
-46 -45 0
94 119 0
-94 -119 0
14 52 0
-14 -52 0
87 10 0
-87 -10 0
44 137 0
-44 -137 0
56 99 0
-56 -99 0
4 78 0
-4 -78 0
84 90 0
-84 -90 0
93 8 0
-93 -8 0
62 83 0
-62 -83 0
26 115 0
-26 -115 0
72 59 0
-72 -59 0
120 34 0
-120 -34 0
41 37 0
-41 -37 0
72 58 0
-72 -58 0
25 36 0
-25 -36 0
80 117 0
-80 -117 0
21 90 0
-21 -90 0
48 28 0
-48 -28 0
86 26 0
-86 -26 0
101 51 0
-101 -51 0
75 92 0
-75 -92 0
6 61 0
-6 -61 0
34 13 0
-34 -13 0
138 99 0
-138 -99 0
99 61 0
-99 -61 0
102 12 0
-102 -12 0
44 60 0
-44 -60 0
25 124 0
-25 -124 0
102 9 0
-102 -9 0
111 50 0
-111 -50 0
105 26 0
-105 -26 0
128 66 0
-128 -66 0
104 126 0
-104 -126 0
5 17 0
-5 -17 0
5 59 0
-5 -59 0
57 55 0
-57 -55 0
26 71 0
-26 -71 0
140 35 0
-140 -35 0
38 125 0
-38 -125 0
21 113 0
-21 -113 0
100 88 0
-100 -88 0
77 61 0
-77 -61 0
38 132 0
-38 -132 0
4 32 0
-4 -32 0
1 9 0
-1 -9 0
127 113 0
-127 -113 0
139 98 0
-139 -98 0
53 45 0
-53 -45 0
121 23 0
-121 -23 0
91 65 0
-91 -65 0
16 8 0
-16 -8 0
53 130 0
-53 -130 0
133 131 0
-133 -131 0
42 126 0
-42 -126 0
31 41 0
-31 -41 0
84 19 0
-84 -19 0
14 47 0
-14 -47 0
39 66 0
-39 -66 0
41 23 0
-41 -23 0
77 36 0
-77 -36 0
43 95 0
-43 -95 0
37 36 0
-37 -36 0
45 137 0
-45 -137 0
33 98 0
-33 -98 0
114 50 0
-114 -50 0
86 109 0
-86 -109 0
73 44 0
-73 -44 0
21 105 0
-21 -105 0
108 82 0
-108 -82 0
104 121 0
-104 -121 0
117 25 0
-117 -25 0
72 64 0
-72 -64 0
15 92 0
-15 -92 0
82 134 0
-82 -134 0
139 4 0
-139 -4 0
73 7 0
-73 -7 0
104 71 0
-104 -71 0
136 92 0
-136 -92 0
109 66 0
-109 -66 0
79 123 0
-79 -123 0
25 88 0
-25 -88 0
57 64 0
-57 -64 0
48 26 0
-48 -26 0
136 124 0
-136 -124 0
85 112 0
-85 -112 0
7 67 0
-7 -67 0
50 88 0
-50 -88 0
100 84 0
-100 -84 0
130 98 0
-130 -98 0
3 24 0
-3 -24 0
41 15 0
-41 -15 0
86 110 0
-86 -110 0
4 19 0
-4 -19 0
38 9 0
-38 -9 0
105 81 0
-105 -81 0
94 129 0
-94 -129 0
139 125 0
-139 -125 0
10 19 0
-10 -19 0
62 34 0
-62 -34 0
133 59 0
-133 -59 0
73 2 0
-73 -2 0
66 92 0
-66 -92 0
81 18 0
-81 -18 0
105 36 0
-105 -36 0
21 67 0
-21 -67 0
133 88 0
-133 -88 0
94 23 0
-94 -23 0
3 33 0
-3 -33 0
63 20 0
-63 -20 0
57 88 0
-57 -88 0
73 81 0
-73 -81 0
11 116 0
-11 -116 0
85 70 0
-85 -70 0
21 11 0
-21 -11 0
116 68 0
-116 -68 0
85 109 0
-85 -109 0
5 98 0
-5 -98 0
40 107 0
-40 -107 0
22 69 0
-22 -69 0
4 70 0
-4 -70 0
138 67 0
-138 -67 0
90 24 0
-90 -24 0
120 118 0
-120 -118 0
83 125 0
-83 -125 0
3 36 0
-3 -36 0
63 32 0
-63 -32 0
78 71 0
-78 -71 0
137 24 0
-137 -24 0
74 59 0
-74 -59 0
127 29 0
-127 -29 0
55 51 0
-55 -51 0
115 30 0
-115 -30 0
37 51 0
-37 -51 0
57 53 0
-57 -53 0
117 60 0
-117 -60 0
82 129 0
-82 -129 0
128 54 0
-128 -54 0
58 23 0
-58 -23 0
48 6 0
-48 -6 0
7 23 0
-7 -23 0
55 3 0
-55 -3 0
94 116 0
-94 -116 0
92 95 0
-92 -95 0
13 47 0
-13 -47 0
100 95 0
-100 -95 0
122 54 0
-122 -54 0
119 137 0
-119 -137 0
38 136 0
-38 -136 0
72 95 0
-72 -95 0
102 3 0
-102 -3 0
121 135 0
-121 -135 0
94 88 0
-94 -88 0
41 24 0
-41 -24 0
140 6 0
-140 -6 0
83 33 0
-83 -33 0
108 68 0
-108 -68 0
128 67 0
-128 -67 0
46 7 0
-46 -7 0
113 91 0
-113 -91 0
75 36 0
-75 -36 0
125 9 0
-125 -9 0
21 92 0
-21 -92 0
97 90 0
-97 -90 0
118 135 0
-118 -135 0
94 93 0
-94 -93 0
127 57 0
-127 -57 0
66 88 0
-66 -88 0
72 116 0
-72 -116 0
31 70 0
-31 -70 0
15 119 0
-15 -119 0
74 70 0
-74 -70 0
79 99 0
-79 -99 0
132 96 0
-132 -96 0
75 98 0
-75 -98 0
75 26 0
-75 -26 0
124 118 0
-124 -118 0
121 24 0
-121 -24 0
91 61 0
-91 -61 0
77 95 0
-77 -95 0
109 84 0
-109 -84 0
31 129 0
-31 -129 0
47 115 0
-47 -115 0
27 24 0
-27 -24 0
112 129 0
-112 -129 0
127 83 0
-127 -83 0
132 58 0
-132 -58 0
4 2 0
-4 -2 0
40 39 0
-40 -39 0
21 51 0
-21 -51 0
63 116 0
-63 -116 0
5 21 0
-5 -21 0
13 135 0
-13 -135 0
29 126 0
-29 -126 0
79 78 0
-79 -78 0
140 125 0
-140 -125 0
77 124 0
-77 -124 0
125 17 0
-125 -17 0
73 32 0
-73 -32 0
74 130 0
-74 -130 0
102 25 0
-102 -25 0
125 98 0
-125 -98 0
42 119 0
-42 -119 0
5 9 0
-5 -9 0
91 12 0
-91 -12 0
109 69 0
-109 -69 0
140 76 0
-140 -76 0
104 20 0
-104 -20 0
1 135 0
-1 -135 0
11 137 0
-11 -137 0
16 98 0
-16 -98 0
41 9 0
-41 -9 0
5 23 0
-5 -23 0
15 26 0
-15 -26 0
81 61 0
-81 -61 0
62 128 0
-62 -128 0
122 68 0
-122 -68 0
35 116 0
-35 -116 0
52 99 0
-52 -99 0
73 122 0
-73 -122 0
87 70 0
-87 -70 0
100 8 0
-100 -8 0
136 65 0
-136 -65 0
139 29 0
-139 -29 0
116 129 0
-116 -129 0
9 130 0
-9 -130 0
52 4 0
-52 -4 0
38 43 0
-38 -43 0
103 135 0
-103 -135 0
61 70 0
-61 -70 0
49 91 0
-49 -91 0
62 66 0
-62 -66 0
29 88 0
-29 -88 0
116 60 0
-116 -60 0
62 135 0
-62 -135 0
20 119 0
-20 -119 0
5 107 0
-5 -107 0
107 78 0
-107 -78 0
102 11 0
-102 -11 0
2 110 0
-2 -110 0
56 39 0
-56 -39 0
114 64 0
-114 -64 0
112 88 0
-112 -88 0
114 118 0
-114 -118 0
21 81 0
-21 -81 0
105 135 0
-105 -135 0
14 88 0
-14 -88 0
28 95 0
-28 -95 0
63 40 0
-63 -40 0
138 118 0
-138 -118 0
133 67 0
-133 -67 0
18 67 0
-18 -67 0
101 133 0
-101 -133 0
3 69 0
-3 -69 0
104 55 0
-104 -55 0
2 131 0
-2 -131 0
21 112 0
-21 -112 0
13 98 0
-13 -98 0
140 56 0
-140 -56 0
70 115 0
-70 -115 0
111 9 0
-111 -9 0
40 70 0
-40 -70 0
139 81 0
-139 -81 0
106 129 0
-106 -129 0
26 54 0
-26 -54 0
83 138 0
-83 -138 0
57 7 0
-57 -7 0
62 90 0
-62 -90 0
4 134 0
-4 -134 0
94 78 0
-94 -78 0
55 106 0
-55 -106 0
73 125 0
-73 -125 0
114 27 0
-114 -27 0
38 8 0
-38 -8 0
111 97 0
-111 -97 0
74 76 0
-74 -76 0
18 11 0
-18 -11 0
102 30 0
-102 -30 0
97 88 0
-97 -88 0
20 110 0
-20 -110 0
29 23 0
-29 -23 0
16 82 0
-16 -82 0
109 58 0
-109 -58 0
49 75 0
-49 -75 0
52 67 0
-52 -67 0
128 132 0
-128 -132 0
18 26 0
-18 -26 0
100 19 0
-100 -19 0
80 77 0
-80 -77 0
136 134 0
-136 -134 0
132 9 0
-132 -9 0
140 107 0
-140 -107 0
20 67 0
-20 -67 0
100 126 0
-100 -126 0
116 118 0
-116 -118 0
38 60 0
-38 -60 0
136 25 0
-136 -25 0
71 65 0
-71 -65 0
37 54 0
-37 -54 0
85 42 0
-85 -42 0
49 123 0
-49 -123 0
79 72 0
-79 -72 0
30 110 0
-30 -110 0
16 138 0
-16 -138 0
136 50 0
-136 -50 0
86 65 0
-86 -65 0
123 65 0
-123 -65 0
85 48 0
-85 -48 0
54 113 0
-54 -113 0
114 25 0
-114 -25 0
7 113 0
-7 -113 0
102 109 0
-102 -109 0
58 123 0
-58 -123 0
128 108 0
-128 -108 0
29 64 0
-29 -64 0
12 118 0
-12 -118 0
72 65 0
-72 -65 0
138 94 0
-138 -94 0
36 65 0
-36 -65 0
97 67 0
-97 -67 0
43 88 0
-43 -88 0
3 123 0
-3 -123 0
122 119 0
-122 -119 0
52 68 0
-52 -68 0
31 120 0
-31 -120 0
133 29 0
-133 -29 0
99 47 0
-99 -47 0
37 98 0
-37 -98 0
131 92 0
-131 -92 0
133 10 0
-133 -10 0
91 123 0
-91 -123 0
114 40 0
-114 -40 0
67 103 0
-67 -103 0
120 82 0
-120 -82 0
9 103 0
-9 -103 0
76 12 0
-76 -12 0
94 69 0
-94 -69 0
127 46 0
-127 -46 0
49 24 0
-49 -24 0
140 32 0
-140 -32 0
42 65 0
-42 -65 0
104 60 0
-104 -60 0
77 26 0
-77 -26 0
38 54 0
-38 -54 0
122 125 0
-122 -125 0
25 10 0
-25 -10 0
109 10 0
-109 -10 0
40 61 0
-40 -61 0
36 99 0
-36 -99 0
70 60 0
-70 -60 0
3 113 0
-3 -113 0
85 29 0
-85 -29 0
20 65 0
-20 -65 0
2 118 0
-2 -118 0
103 24 0
-103 -24 0
38 1 0
-38 -1 0
41 11 0
-41 -11 0
96 112 0
-96 -112 0
83 59 0
-83 -59 0
87 135 0
-87 -135 0
45 70 0
-45 -70 0
16 10 0
-16 -10 0
20 66 0
-20 -66 0
36 59 0
-36 -59 0
75 135 0
-75 -135 0
93 66 0
-93 -66 0
5 44 0
-5 -44 0
117 44 0
-117 -44 0
4 131 0
-4 -131 0
16 30 0
-16 -30 0
14 113 0
-14 -113 0
32 61 0
-32 -61 0
134 24 0
-134 -24 0
104 105 0
-104 -105 0
40 47 0
-40 -47 0
14 90 0
-14 -90 0
48 71 0
-48 -71 0
111 56 0
-111 -56 0
8 99 0
-8 -99 0
