FourierSAT_Github_AIJ/res/fs_1core/maxcut-140-630-0.8-14.cnf.txt
o 194
o 190
o 184
